c preprocessed version of BN_92, 39 vertices, 410 edges
p td 39 410
0 1
0 2
17 0
16 0
2 1
17 1
16 1
25 1
2 3
13 2
17 2
16 2
3 4
11 3
12 3
17 3
22 3
25 3
5 4
11 4
6 4
9 4
12 4
13 4
20 4
22 4
24 4
25 4
6 5
9 5
12 5
19 5
13 5
20 5
24 5
25 5
6 7
9 6
19 6
13 6
17 6
20 6
22 6
23 6
24 6
25 6
8 7
10 7
13 7
17 7
21 7
16 7
20 7
22 7
23 7
24 7
8 9
8 11
8 10
8 12
13 8
15 8
21 8
16 8
20 8
22 8
23 8
24 8
25 8
10 9
9 12
13 9
17 9
21 9
16 9
20 9
23 9
24 9
25 9
10 11
10 12
13 10
15 10
21 10
16 10
20 10
22 10
23 10
24 10
25 10
12 11
22 11
25 11
13 12
20 12
22 12
23 12
24 12
25 12
13 14
13 18
13 15
13 16
13 21
13 17
20 13
22 13
23 13
24 13
25 13
15 14
17 14
21 14
16 14
20 14
22 14
23 14
24 14
25 14
15 16
15 21
15 17
20 15
22 15
23 15
24 15
25 15
17 16
21 16
20 16
22 16
23 16
24 16
25 16
17 18
17 21
20 17
22 17
23 17
24 17
25 17
19 18
20 18
22 18
23 18
24 18
25 18
20 19
24 19
25 19
20 21
20 22
20 23
20 24
20 25
22 21
23 21
24 21
25 21
22 23
22 24
22 25
23 24
23 25
24 25
26 7
26 33
26 31
26 14
26 32
26 8
26 9
26 10
26 12
26 19
26 18
26 16
26 36
26 35
26 15
26 21
26 13
26 17
26 20
26 22
26 27
26 28
26 29
26 23
26 30
26 24
26 34
26 25
26 37
27 38
27 20
27 22
27 29
27 33
27 34
27 23
27 28
27 24
27 25
27 18
27 31
27 32
27 30
27 13
27 15
27 17
27 35
27 36
27 37
27 21
27 16
28 38
28 20
28 22
28 29
28 33
28 23
28 34
28 24
28 25
28 19
28 18
28 31
28 32
28 30
28 13
28 17
28 35
28 36
28 37
29 38
29 20
29 22
29 0
29 14
29 33
29 23
29 34
29 24
29 25
29 18
29 31
29 32
29 30
29 13
29 15
29 17
29 35
29 36
29 37
29 21
29 16
30 38
30 20
30 22
30 23
30 4
30 5
30 33
30 34
30 8
30 10
30 24
30 14
30 25
30 19
30 18
30 31
30 32
30 13
30 15
30 17
30 35
30 36
30 37
30 21
30 16
31 38
31 5
31 33
31 14
31 32
31 13
31 15
31 17
31 35
31 36
31 21
31 16
31 20
31 22
31 23
31 24
31 34
31 25
31 37
32 38
32 0
32 1
32 5
32 33
32 14
32 8
32 10
32 12
32 13
32 15
32 17
32 35
32 36
32 21
32 16
32 20
32 22
32 23
32 24
32 34
32 25
32 37
33 38
33 0
33 7
33 11
33 8
33 10
33 12
33 18
33 13
33 35
33 36
33 21
33 16
33 20
33 22
33 24
33 34
33 25
33 37
34 38
34 20
34 22
34 23
34 24
34 7
34 6
34 12
34 25
34 18
34 13
34 15
34 17
34 35
34 36
34 37
35 38
35 6
35 7
35 8
35 10
35 13
35 15
35 16
35 17
35 21
35 36
35 20
35 22
35 24
35 37
36 38
36 13
36 15
36 16
36 17
36 21
36 20
36 22
36 37
37 38
37 20
37 22
37 23
37 24
37 25
37 13
37 15
37 17
37 16
37 3
37 4
37 11
37 12
37 19
37 18
37 21
38 26
38 5
38 6
38 12
38 13
38 20
38 22
38 23
38 24
38 25
